(set-option :produce-models true)
(set-logic QF_UF)
(declare-fun p67() Bool)
(declare-fun p31() Bool)
(declare-fun p3() Bool)
(declare-fun p38() Bool)
(declare-fun p21() Bool)
(declare-fun p36() Bool)
(declare-fun p70() Bool)
(declare-fun p1() Bool)
(declare-fun p48() Bool)
(declare-fun p4() Bool)
(declare-fun p85() Bool)
(declare-fun p20() Bool)
(declare-fun p8() Bool)
(declare-fun p23() Bool)
(declare-fun p41() Bool)
(declare-fun p13() Bool)
(declare-fun p28() Bool)
(declare-fun p34() Bool)
(declare-fun p50() Bool)
(declare-fun p32() Bool)
(declare-fun p19() Bool)
(declare-fun p73() Bool)
(declare-fun p49() Bool)
(declare-fun p72() Bool)
(declare-fun p2() Bool)
(declare-fun p7() Bool)
(declare-fun p89() Bool)
(declare-fun p12() Bool)
(declare-fun p6() Bool)
(declare-fun p35() Bool)
(declare-fun p24() Bool)
(declare-fun p80() Bool)
(declare-fun p54() Bool)
(declare-fun p9() Bool)
(declare-fun p61() Bool)
(declare-fun p65() Bool)
(declare-fun p87() Bool)
(declare-fun p43() Bool)
(declare-fun p88() Bool)
(declare-fun p46() Bool)
(declare-fun p58() Bool)
(declare-fun p18() Bool)
(declare-fun p52() Bool)
(declare-fun p62() Bool)
(declare-fun p25() Bool)
(declare-fun p0() Bool)
(declare-fun p39() Bool)
(declare-fun p51() Bool)
(declare-fun p84() Bool)
(declare-fun p47() Bool)
(declare-fun p15() Bool)
(declare-fun p16() Bool)
(declare-fun p33() Bool)
(declare-fun p26() Bool)
(declare-fun p83() Bool)
(declare-fun p75() Bool)
(declare-fun p53() Bool)
(declare-fun p11() Bool)
(declare-fun p55() Bool)
(declare-fun p69() Bool)
(declare-fun p56() Bool)
(declare-fun p42() Bool)
(declare-fun p63() Bool)
(declare-fun p76() Bool)
(declare-fun p5() Bool)
(declare-fun p81() Bool)
(declare-fun p77() Bool)
(declare-fun p10() Bool)
(declare-fun p37() Bool)
(declare-fun p29() Bool)
(declare-fun p27() Bool)
(declare-fun p40() Bool)
(declare-fun p74() Bool)
(declare-fun p14() Bool)
(declare-fun p17() Bool)
(declare-fun p60() Bool)
(declare-fun p45() Bool)
(declare-fun p57() Bool)
(declare-fun p22() Bool)
(declare-fun p59() Bool)
(declare-fun p66() Bool)
(declare-fun p78() Bool)
(declare-fun p68() Bool)
(declare-fun p86() Bool)
(declare-fun p82() Bool)
(declare-fun p79() Bool)
(declare-fun p64() Bool)
(declare-fun p71() Bool)
(declare-fun p30() Bool)
(declare-fun p44() Bool)
(assert
(and (or p67 (not p31) p3) (or (not p38) p21 (not p36)) (or (not p70) (not p1) (not p48)) (or (not p4) p85 (not p20)) (or p8 p23 (not p41)) (or p13 (not p28) p34) (or p31 (not p41) p50) (or p67 (not p32) (not p19)) (or (not p85) p73 (not p49)) (or (not p72) p2 p32) (or (not p34) p19 p7) (or p89 p12 p6) (or p19 p35 (not p38)) (or (not p13) p24 p80) (or (not p54) (not p20) (not p9)) (or (not p1) (not p12) (not p61)) (or p72 (not p65) p87) (or p43 p2 p1) (or (not p88) (not p48) (not p73)) (or (not p46) (not p58) p18) (or (not p52) (not p62) (not p49)) (or p24 (not p25) p0) (or (not p7) p39 (not p51)) (or p7 (not p21) (not p84)) (or (not p23) p89 p47) (or p84 p43 p21) (or p23 p65 (not p38)) (or (not p88) p15 (not p65)) (or (not p39) p16 p13) (or (not p33) (not p0) (not p54)) (or p26 p83 p21) (or (not p75) (not p7) p54) (or p34 (not p53) (not p61)) (or p2 p61 p20) (or p3 (not p41) p11) (or p62 (not p55) (not p69)) (or p1 (not p32) (not p33)) (or (not p28) p62 (not p56)) (or (not p65) p39 p73) (or (not p42) (not p47) (not p58)) (or p32 p28 (not p63)) (or (not p69) p7 p53) (or p76 p62 p36) (or (not p65) p32 p5) (or p25 p21 p8) (or (not p88) p6 (not p69)) (or p83 (not p19) (not p83)) (or (not p21) (not p73) p73) (or p80 p81 (not p77)) (or (not p65) (not p10) p37) (or (not p29) p27 (not p25)) (or (not p35) p61 p85) (or p11 p11 p75) (or p40 (not p29) (not p40)) (or p74 (not p19) p14) (or (not p76) p39 (not p27)) (or (not p63) p40 p75) (or (not p56) p63 p17) (or (not p60) (not p73) p2) (or p85 p88 p74) (or (not p17) p27 p46) (or (not p17) (not p12) (not p8)) (or (not p21) p45 (not p15)) (or p14 p56 (not p53)) (or p55 p72 p57) (or (not p18) (not p16) p21) (or p49 p87 p22) (or (not p35) p27 (not p39)) (or (not p81) (not p59) p77) (or p67 (not p74) (not p23)) (or (not p65) (not p48) (not p42)) (or p84 (not p27) (not p34)) (or (not p27) (not p66) p75) (or (not p36) (not p77) p15) (or p78 p63 p72) (or p1 (not p68) p4) (or (not p21) p49 p86) (or p40 (not p49) p65) (or (not p51) (not p15) p89) (or p88 p78 (not p18)) (or p73 p3 (not p3)) (or p23 p61 (not p58)) (or p82 p83 (not p50)) (or (not p15) p6 (not p79)) (or (not p26) (not p2) (not p35)) (or p23 p84 (not p55)) (or p63 p88 p29) (or p72 (not p53) (not p86)) (or p64 (not p54) (not p76)) (or (not p13) p75 (not p6)) (or (not p25) p26 p13) (or (not p69) p8 (not p36)) (or (not p71) p33 p37) (or (not p37) (not p77) p2) (or (not p85) (not p63) (not p10)) (or p63 p4 (not p34)) (or (not p70) p41 (not p87)) (or (not p59) (not p26) p64) (or (not p49) (not p68) (not p57)) (or (not p73) p14 p33) (or (not p3) (not p55) (not p68)) (or (not p64) (not p50) (not p79)) (or p40 p15 (not p13)) (or (not p3) (not p53) (not p34)) (or (not p10) (not p20) (not p8)) (or (not p42) p85 (not p24)) (or p43 p53 (not p13)) (or p81 p80 p70) (or p7 p48 p86) (or p9 (not p12) p43) (or p80 p59 (not p49)) (or p15 (not p53) p15) (or p8 p66 (not p25)) (or (not p32) p51 p8) (or (not p32) p22 p37) (or p40 p20 (not p38)) (or (not p67) (not p17) (not p6)) (or (not p17) p62 (not p4)) (or p81 p80 p17) (or p56 p60 (not p43)) (or (not p29) (not p18) p63) (or (not p73) (not p72) (not p10)) (or (not p0) (not p32) p50) (or p8 p9 (not p89)) (or (not p22) (not p26) p22) (or p11 p13 (not p61)) (or (not p3) (not p53) (not p55)) (or (not p73) (not p49) p39) (or (not p78) p63 (not p69)) (or p87 p5 p7) (or p19 (not p13) (not p15)) (or p36 (not p29) (not p87)) (or (not p80) (not p41) p83) (or (not p66) (not p39) (not p35)) (or (not p14) p80 (not p14)) (or (not p26) p1 (not p53)) (or (not p5) (not p77) (not p49)) (or (not p10) p70 p64) (or (not p87) (not p64) p71) (or p6 (not p45) p32) (or p70 p10 p88) (or (not p2) p15 p27) (or p25 p40 (not p5)) (or (not p42) (not p1) p76) (or p61 (not p23) p87) (or (not p75) (not p28) p2) (or p31 (not p80) (not p53)) (or (not p84) (not p12) (not p16)) (or p45 (not p80) (not p86)) (or p86 (not p42) (not p77)) (or p86 p71 p11) (or p72 (not p77) p79) (or p71 (not p32) p29) (or (not p33) (not p2) (not p69)) (or p47 (not p9) p71) (or (not p1) p73 (not p42)) (or p86 (not p51) (not p35)) (or p18 p70 p36) (or (not p55) p80 p15) (or (not p40) (not p72) (not p41)) (or p40 p67 p14) (or p49 p73 (not p73)) (or (not p88) p38 p35) (or p38 (not p63) (not p34)) (or (not p65) (not p79) (not p50)) (or p63 p16 p50) (or (not p60) p52 p53) (or (not p70) (not p31) p19) (or p60 p84 p34) (or p36 p26 (not p53)) (or p22 (not p58) p83) (or (not p10) p36 (not p82)) (or p30 p74 p65) (or (not p53) (not p4) p18) (or (not p18) (not p22) (not p2)) (or (not p45) (not p54) p21) (or (not p36) (not p11) (not p42)) (or (not p73) p22 (not p16)) (or p67 (not p86) (not p46)) (or (not p36) p13 (not p13)) (or (not p8) p32 (not p29)) (or p86 (not p63) p61) (or p49 p54 p16) (or (not p88) (not p52) p12) (or p21 p85 p36) (or p87 p62 (not p87)) (or p22 p68 (not p41)) (or p54 p5 (not p56)) (or (not p81) p68 (not p66)) (or p82 (not p49) p18) (or (not p43) p27 (not p72)) (or (not p20) p4 (not p37)) (or p64 p15 (not p58)) (or p78 p22 p35) (or (not p32) p81 p2) (or (not p5) p16 p65) (or (not p36) (not p10) (not p18)) (or (not p17) (not p52) p54) (or p79 p53 p38) (or (not p39) p11 (not p72)) (or p12 p24 (not p1)) (or (not p81) p2 p35) (or p34 (not p58) (not p51)) (or p35 p60 p31) (or p75 (not p14) p20) (or (not p30) (not p20) (not p25)) (or (not p40) p74 p12) (or (not p73) p39 (not p6)) (or p70 (not p13) (not p55)) (or p4 (not p22) (not p32)) (or p77 (not p89) p62) (or (not p2) p14 (not p67)) (or (not p8) p52 (not p58)) (or (not p55) p84 p15) (or p46 p30 p43) (or p2 p33 p24) (or (not p0) (not p21) p66) (or (not p65) (not p89) p34) (or (not p61) (not p83) (not p86)) (or p25 p5 p36) (or (not p77) p68 p13) (or p11 p32 p25) (or (not p18) p50 p43) (or p77 p49 (not p30)) (or (not p42) (not p8) p66) (or p53 p6 (not p40)) (or p83 p81 p22) (or p86 (not p79) p72) (or p86 p57 (not p2)) (or (not p14) (not p84) p76) (or (not p56) p23 p73) (or (not p60) p13 (not p88)) (or p39 (not p80) (not p14)) (or p58 (not p31) (not p41)) (or (not p41) (not p9) p67) (or (not p61) p54 p76) (or p52 p56 p50) (or p65 (not p81) p55) (or p24 p78 (not p8)) (or (not p19) p45 p83) (or (not p78) (not p72) p36) (or (not p79) p0 p69) (or p63 (not p56) (not p56)) (or (not p4) (not p88) p6) (or p80 (not p34) (not p28)) (or (not p55) p11 (not p68)) (or p74 (not p41) p66) (or p51 p31 p77) (or p73 p85 p10) (or (not p2) p11 (not p41)) (or p66 p83 (not p5)) (or p77 p79 (not p56)) (or (not p59) p31 (not p56)) (or p61 (not p51) (not p16)) (or p52 (not p43) p27) (or p56 p39 (not p78)) (or (not p57) p76 p31) (or p7 p36 p6) (or p71 (not p36) p81) (or (not p56) (not p83) p24) (or p55 p58 p54) (or (not p45) (not p7) p21) (or p70 p85 p28) (or p66 p4 (not p57)) (or (not p4) p79 (not p60)) (or (not p12) (not p54) p11) (or (not p3) (not p45) p74) (or (not p82) p62 p52) (or p73 p72 p39) (or (not p26) p67 (not p83)) (or (not p71) (not p58) p60) (or (not p57) p44 (not p33)) (or (not p66) (not p39) (not p85)) (or (not p5) (not p12) p29) (or p60 p64 (not p52)) (or p53 p47 p40) (or (not p62) p33 p10) (or p34 (not p24) p35) (or p68 p51 p73) (or p29 p36 (not p84)) (or p85 p57 (not p50)) (or p80 (not p21) (not p64)) (or p57 p65 (not p17)) (or (not p50) p11 (not p72)) (or (not p30) (not p15) (not p25)) (or p44 p66 (not p54)) (or (not p67) p77 p24) (or p85 p65 p20) (or (not p6) p81 (not p57)) (or p84 (not p76) p84) (or p58 p37 p24) (or p69 p86 p78) (or (not p65) p72 p88) (or p82 (not p2) p50) (or (not p60) (not p88) (not p5)) (or p9 p74 p62) (or p55 p3 (not p80)) (or (not p18) (not p26) p71) (or (not p38) p17 (not p40)) (or p7 (not p11) p73) (or p0 (not p8) p41) (or p15 p51 p23) (or (not p4) p65 p64) (or (not p12) (not p7) (not p8)) (or p19 p77 p61) (or p15 (not p55) (not p57)) (or p60 (not p59) (not p6)) (or p17 p32 p37) (or p29 (not p21) (not p20)) (or p63 p13 (not p78)) (or p82 p85 (not p30)) (or (not p32) p22 (not p19)) (or p64 (not p0) (not p33)) (or p15 (not p44) (not p9)) (or (not p74) p75 p85) (or p50 p38 p66) (or p54 p6 p58) (or (not p33) (not p2) p86) (or p34 (not p78) p41) (or (not p88) (not p31) (not p65)) (or (not p49) p32 (not p30)) (or (not p37) p10 (not p62)) (or p71 p25 (not p50)) (or p71 p21 (not p64)) (or (not p71) p31 (not p65)) (or p54 (not p24) p52) (or p51 p34 (not p50)) (or (not p56) p77 (not p41)) (or p31 p34 p16) (or (not p63) p57 (not p71)) (or p80 p10 (not p40)) (or (not p45) (not p56) p3) (or (not p69) p23 p87) (or p63 (not p51) (not p58)) (or (not p66) p73 p47) (or p31 p67 (not p38)) (or (not p65) (not p51) p12) (or (not p4) p84 (not p84)) (or (not p39) p56 (not p73)) (or (not p52) p32 p65) (or p43 (not p63) (not p70)) (or p68 (not p65) (not p44)) (or p55 p9 (not p76)) (or p53 (not p19) p86) (or (not p46) (not p32) p42) (or p58 p26 p66) (or (not p15) p50 p86) (or p34 (not p64) p51) (or p39 p61 p15) (or p32 p11 (not p23)) (or (not p13) (not p62) (not p52)) (or p26 (not p1) p43) (or p32 p1 p82) (or (not p31) p85 p40) (or p82 (not p50) p10) (or p10 (not p76) (not p13)) (or (not p25) p12 (not p26)) (or p88 p10 (not p86)) (or p46 (not p33) (not p56)) (or (not p40) (not p55) (not p70)) (or p35 (not p67) p86) (or (not p22) p67 (not p61)) (or p67 (not p18) (not p16)) (or p26 (not p17) (not p89)) (or (not p18) (not p15) p6) (or (not p28) (not p29) p29) (or p66 (not p83) (not p63)) (or p83 p60 p16) (or (not p19) p49 p13) (or p40 (not p45) p70) (or (not p17) p55 (not p15)) (or p32 (not p60) (not p50)) (or (not p0) p1 (not p26)) (or (not p87) p81 p14) (or (not p69) (not p85) p2) (or p76 (not p61) (not p36)) (or (not p7) p82 (not p21)) (or (not p44) p43 (not p45)) (or p6 p14 (not p21)) (or p48 p18 (not p43)) (or p4 p45 (not p11)) (or (not p35) (not p23) p78) (or (not p89) p26 p65) (or p78 (not p1) p84) (or p40 (not p30) p64) (or p65 (not p52) (not p8)) (or p24 p73 (not p23)) (or (not p44) p31 p64) (or p40 p5 (not p11)) (or p67 p66 p33) (or p70 (not p72) (not p25)) (or p89 p28 p2) (or (not p83) p78 p9) (or p89 (not p49) (not p84)) (or p22 (not p80) (not p65)) (or p34 p5 (not p59)) (or (not p13) (not p85) p28) (or p10 p64 p49) (or p15 p87 (not p59)) (or p87 p38 (not p18)) (or p52 (not p6) (not p27)) (or p46 (not p77) (not p51)) (or p74 p89 (not p51)) (or (not p68) p89 (not p11)) (or (not p77) p62 p35) (or p0 (not p28) p73) (or (not p40) p62 p16) (or p55 p60 (not p3)) (or p8 p21 p0) (or (not p17) p18 p15) (or (not p25) p2 p11) (or p34 p87 (not p38)) (or p18 p54 p4) (or p36 p67 p81) (or (not p87) (not p36) p9) (or (not p87) p87 (not p34)) (or p0 (not p4) p18) (or (not p68) (not p11) p26) (or p42 (not p52) p89) (or (not p8) (not p5) (not p34)) (or (not p17) p59 p83) (or p42 p76 p27) (or p8 p75 (not p76)) (or p2 (not p42) p87) (or p86 (not p73) p40) (or p33 (not p8) p36) (or (not p72) (not p58) (not p13)) (or (not p43) p14 (not p17)) (or p17 (not p5) p65) (or p75 (not p76) p39) (or (not p76) (not p65) (not p28)) (or p39 (not p61) p11) (or p76 (not p14) (not p6)) (or (not p61) (not p43) p36) (or p80 (not p7) p66) (or (not p78) (not p65) (not p42)) (or p81 p40 p10) (or (not p53) p6 p60) (or (not p53) p27 p17) (or (not p58) (not p37) (not p65)) (or p72 (not p22) (not p15)) (or p11 (not p49) p64) (or p52 p1 (not p72)) (or p0 p80 (not p85)) (or p81 (not p26) p9) (or p67 p61 (not p33)) (or (not p46) (not p84) p32) (or p34 p77 (not p39)))
)
(check-sat)
(get-model)
